(declare-fun main@%_11_0 () Bool)
(declare-fun main@%_10_0 () Bool)
(declare-fun main@%a.0.i.lcssa_1 () (_ BitVec 32))
(declare-fun main@%a.0.i.lcssa_0 () (_ BitVec 32))
(declare-fun main@%.lcssa_0 () (_ BitVec 32))
(declare-fun main@verifier.error_0 () Bool)
(declare-fun main@%_9_0 () Bool)
(declare-fun main@.lr.ph_0 () Bool)
(declare-fun main@verifier.error.loopexit_0 () Bool)
(declare-fun main@%a.0.i1_0 () (_ BitVec 32))
(declare-fun main@%.lcssa_1 () (_ BitVec 32))
(declare-fun main@%b.0.i2_0 () (_ BitVec 32))
(declare-fun main@verifier.error.split_0 () Bool)
(declare-fun main@%_8_0 () (_ BitVec 32))
(declare-fun main@%_7_0 () (_ BitVec 32))

(assert (not false))
(assert (let ((a!1 (ite (bvslt main@%a.0.i1_0 #x00000000)
                (- (bv2int main@%a.0.i1_0) 4294967296)
                (bv2int main@%a.0.i1_0))))
(let ((a!2 (not (<= (ite (bvslt main@%a.0.i1_0 #x00000000)
                         (- a!1 4294967296)
                         a!1)
                    (- 1)))))
  (and true
       a!2
       true
       (= main@%_7_0 (bvadd main@%a.0.i1_0 #x00000001))
       (= main@%_8_0 (bvadd main@%b.0.i2_0 #xffffffff))
       (= main@%_9_0 (bvsgt main@%b.0.i2_0 #x00000001))
       (=> main@verifier.error.loopexit_0
           (and main@verifier.error.loopexit_0 main@.lr.ph_0))
       (=> (and main@verifier.error.loopexit_0 main@.lr.ph_0) (not main@%_9_0))
       (=> (and main@verifier.error.loopexit_0 main@.lr.ph_0)
           (= main@%.lcssa_0 main@%_7_0))
       (=> (and main@verifier.error.loopexit_0 main@.lr.ph_0)
           (= main@%.lcssa_1 main@%.lcssa_0))
       (=> main@verifier.error_0
           (and main@verifier.error_0 main@verifier.error.loopexit_0))
       (=> (and main@verifier.error_0 main@verifier.error.loopexit_0)
           (= main@%a.0.i.lcssa_0 main@%.lcssa_1))
       (=> (and main@verifier.error_0 main@verifier.error.loopexit_0)
           (= main@%a.0.i.lcssa_1 main@%a.0.i.lcssa_0))
       (=> main@verifier.error_0
           (= main@%_10_0 (bvsgt main@%a.0.i.lcssa_1 #x00000000)))
       (=> main@verifier.error_0 (not main@%_10_0))
       (=> main@verifier.error_0 (= main@%_11_0 (xor main@%_10_0 true)))
       (=> main@verifier.error.split_0
           (and main@verifier.error.split_0 main@verifier.error_0))
       main@verifier.error.split_0))))
(check-sat)
(get-model)
